p cnf 116 401
-3 -1 0
-3 -2 0
1 2 3 0
-6 -4 0
-6 5 0
4 -5 6 0
-7 -6 0
-7 6 0
-8 3 0
-8 7 0
-3 -7 8 0
-2 9 -10 0
2 -9 -10 0
-2 -9 10 0
2 9 10 0
10 -11 -12 0
-10 11 -12 0
10 11 12 0
-10 -11 12 0
-14 -12 0
-14 13 0
12 -13 14 0
-8 -14 -15 0
8 14 -15 0
-8 14 15 0
8 -14 15 0
18 -16 0
18 17 0
16 -17 -18 0
-20 -2 0
-20 -12 0
2 12 20 0
-21 20 0
-21 -4 0
-20 4 21 0
19 21 -22 0
-19 -21 -22 0
19 -21 22 0
-19 21 22 0
23 -18 0
23 -22 0
18 22 -23 0
-15 -23 -24 0
15 23 -24 0
-15 23 24 0
15 -23 24 0
25 -19 0
25 13 0
19 -13 -25 0
26 10 0
26 21 0
-10 -21 -26 0
-27 22 0
-27 -26 0
-22 26 27 0
28 25 0
28 27 0
-25 -27 -28 0
29 -13 0
29 -10 0
13 10 -29 0
19 -9 -30 0
-19 9 -30 0
19 9 30 0
-19 -9 30 0
-31 -29 0
-31 -30 0
29 30 31 0
-31 -32 0
31 -32 0
-33 -22 0
-33 -32 0
22 32 33 0
-28 -33 -34 0
28 33 -34 0
-28 33 34 0
28 -33 34 0
-22 17 -36 0
22 -17 -36 0
-22 -17 36 0
22 17 36 0
35 36 -37 0
-35 -36 -37 0
35 -36 37 0
-35 36 37 0
39 35 0
39 38 0
-35 -38 -39 0
40 37 0
40 -39 0
-37 39 -40 0
-41 -34 0
-41 40 0
34 -40 41 0
42 -35 0
42 1 0
35 -1 -42 0
-26 -42 -43 0
26 42 -43 0
-26 42 43 0
26 -42 43 0
44 -43 0
44 3 0
43 -3 -44 0
45 -35 0
45 -16 0
35 16 -45 0
46 45 0
46 16 0
-45 -16 -46 0
47 -44 0
47 46 0
44 -46 -47 0
48 -41 0
48 47 0
41 -47 -48 0
-49 24 0
-49 48 0
-24 -48 49 0
-50 11 0
-50 12 0
-11 -12 50 0
-51 -50 0
-51 14 0
50 -14 51 0
52 -51 0
52 -42 0
51 42 -52 0
-26 -9 -53 0
26 9 -53 0
-26 9 53 0
26 -9 53 0
54 26 0
54 -36 0
-26 36 -54 0
-55 -2 0
-55 -54 0
2 54 55 0
-56 -53 0
-56 55 0
53 -55 56 0
-58 57 0
-58 29 0
-57 -29 58 0
-20 -22 -59 0
20 22 -59 0
-20 22 59 0
20 -22 59 0
-60 58 0
-60 -59 0
-58 59 60 0
12 -61 0
-12 -61 0
62 61 0
62 19 0
-61 -19 -62 0
-63 60 0
-63 62 0
-60 -62 63 0
64 -10 0
64 16 0
10 -16 -64 0
65 10 0
65 20 0
-10 -20 -65 0
66 -64 0
66 -65 0
64 65 -66 0
67 -16 0
67 -66 0
16 66 -67 0
68 13 0
68 9 0
-13 -9 -68 0
-69 20 0
-69 68 0
-20 -68 69 0
70 69 0
70 14 0
-69 -14 -70 0
71 -14 0
71 70 0
14 -70 -71 0
-72 -71 0
-72 -19 0
71 19 72 0
-72 -35 -73 0
72 35 -73 0
-72 35 73 0
72 -35 73 0
67 -73 -74 0
-67 73 -74 0
67 73 74 0
-67 -73 74 0
-75 -25 0
-75 -19 0
25 19 75 0
-74 75 -76 0
74 -75 -76 0
-74 -75 76 0
74 75 76 0
77 63 0
77 76 0
-63 -76 -77 0
9 -36 -78 0
-9 36 -78 0
9 36 78 0
-9 -36 78 0
-79 -77 0
-79 78 0
77 -78 79 0
80 -56 0
80 79 0
56 -79 -80 0
81 52 0
81 -80 0
-52 80 -81 0
-82 -30 0
-82 50 0
30 -50 82 0
-83 82 0
-83 36 0
-82 -36 83 0
-43 -6 -84 0
43 6 -84 0
-43 6 84 0
43 -6 84 0
-83 84 -85 0
83 -84 -85 0
-83 -84 85 0
83 84 85 0
-86 -13 0
-86 -10 0
13 10 86 0
-87 86 0
-87 -1 0
-86 1 87 0
-89 88 0
-89 -70 0
-88 70 89 0
-90 87 0
-90 -89 0
-87 89 90 0
-91 85 0
-91 -90 0
-85 90 91 0
26 -14 -92 0
-26 14 -92 0
26 14 92 0
-26 -14 92 0
91 -92 -93 0
-91 92 -93 0
91 92 93 0
-91 -92 93 0
-94 81 0
-94 93 0
-81 -93 94 0
-95 -64 0
-95 30 0
64 -30 95 0
-36 -95 -96 0
36 95 -96 0
-36 95 96 0
36 -95 96 0
97 -16 0
97 -30 0
16 30 -97 0
53 97 -98 0
-53 -97 -98 0
53 -97 98 0
-53 97 98 0
-96 -98 -99 0
96 98 -99 0
-96 98 99 0
96 -98 99 0
-45 -66 -100 0
45 66 -100 0
-45 66 100 0
45 -66 100 0
-5 4 -101 0
5 -4 -101 0
-5 -4 101 0
5 4 101 0
102 -100 0
102 101 0
100 -101 -102 0
-103 51 0
-103 102 0
-51 -102 103 0
99 103 -104 0
-99 -103 -104 0
99 -103 104 0
-99 103 104 0
105 20 0
105 -51 0
-20 51 -105 0
106 86 0
106 -50 0
-86 50 -106 0
-105 -106 -107 0
105 106 -107 0
-105 106 107 0
105 -106 107 0
-108 104 0
-108 107 0
-104 -107 108 0
-109 -61 0
-109 -82 0
61 82 109 0
-109 -61 -110 0
109 61 -110 0
-109 61 110 0
109 -61 110 0
111 30 0
111 -110 0
-30 110 -111 0
112 82 0
112 -5 0
-82 5 -112 0
-111 112 -113 0
111 -112 -113 0
-111 -112 113 0
111 112 113 0
-114 -108 0
-114 113 0
108 -113 114 0
94 -114 -115 0
-94 114 -115 0
94 114 115 0
-94 -114 115 0
116 49 0
116 -115 0
-49 115 -116 0
116 -79 -50 0
-33 22 0
-105 2 0
-79 90 95 -89 0
-41 94 -107 15 0
108 64 0
-62 55 -45 0
-34 92 -66 0
63 -102 57 -97 105 0
16 -43 0
51 -95 -106 -14 0
-51 54 12 0
-99 -21 -58 -28 -107 -29 0
-8 57 66 105 23 84 0
85 70 0
77 -52 84 0
11 88 -22 8 -68 15 0
54 73 -89 20 30 41 0
-85 17 65 -87 0
105 -108 98 68 0
-22 -37 4 16 -49 0
54 -64 108 0
99 -76 17 0
50 63 74 94 -17 0
-62 -86 0
-41 13 -18 16 0
67 59 69 -11 30 -75 0
21 86 -60 51 0
109 -100 29 -43 27 0
75 -81 0
-1 38 -34 0
75 92 0
40 85 0
67 114 100 71 78 0
-110 -15 43 -9 48 -83 0
-20 87 110 72 -12 0
-86 74 0
-58 43 53 0
-96 -94 0
-96 98 65 -30 -38 0
-5 87 99 0
56 60 -73 65 0
40 -90 -50 0
-90 112 -9 39 -80 0
-63 97 -98 -116 0
-2 -63 0
-108 -85 22 6 48 34 0
-82 36 -110 75 21 0
-91 -10 0
-80 -29 54 -44 111 88 0
-29 28 -10 -14 -107 0
-89 107 -42 -100 110 0
-115 51 91 -29 55 0
-95 14 0
61 -40 103 -5 0
-1 -75 -90 104 0
-96 5 57 0
108 47 -40 -57 53 102 0
53 -68 0
-93 -81 -88 86 0
-14 87 15 -49 57 -35 0
-13 109 31 44 0
25 44 0
-40 -36 0
-107 6 33 -61 -101 0
28 104 71 68 0
50 109 0
116 0
